<number of tasks>
75

<cycle time>
41

<task times>
1 23
2 24
3 25
4 26
5 23
6 22
7 6
8 22
9 23
10 21
11 22
12 15
13 5
14 23
15 4
16 26
17 21
18 5
19 24
20 25
21 26
22 26
23 24
24 27
25 20
26 23
27 25
28 13
29 3
30 11
31 21
32 22
33 21
34 22
35 25
36 8
37 22
38 24
39 22
40 21
41 6
42 26
43 22
44 6
45 21
46 25
47 11
48 22
49 21
50 25
51 22
52 22
53 23
54 22
55 22
56 25
57 23
58 21
59 22
60 22
61 22
62 22
63 21
64 27
65 23
66 2
67 26
68 25
69 24
70 22
71 24
72 4
73 22
74 10
75 25

<task process alternatives>
1: 19,15 ; 28,8
2: 20,15 ; 29,8
3: 20,15 ; 30,8
4: 21,15 ; 32,8
5: 19,15 ; 28,8
6: 18,15 ; 27,8
7: 5,15 ; 8,8
8: 18,15 ; 27,8
9: 19,15 ; 28,8
10: 17,15 ; 26,8
11: 18,15 ; 27,8
12: 12,15 ; 18,8
13: 4,15 ; 6,8
14: 19,15 ; 28,8
15: 4,15 ; 5,8
16: 21,15 ; 32,8
17: 17,15 ; 26,8
18: 4,15 ; 6,8
19: 20,15 ; 29,8
20: 20,15 ; 30,8
21: 21,15 ; 32,8
22: 21,15 ; 32,8
23: 20,15 ; 29,8
24: 22,15 ; 33,8
25: 16,15 ; 24,8
26: 19,15 ; 28,8
27: 20,15 ; 30,8
28: 11,15 ; 16,8
29: 3,15 ; 4,8
30: 9,15 ; 14,8
31: 17,15 ; 26,8
32: 18,15 ; 27,8
33: 17,15 ; 26,8
34: 18,15 ; 27,8
35: 20,15 ; 30,8
36: 7,15 ; 10,8
37: 18,15 ; 27,8
38: 20,15 ; 29,8
39: 18,15 ; 27,8
40: 17,15 ; 26,8
41: 5,15 ; 8,8
42: 21,15 ; 32,8
43: 18,15 ; 27,8
44: 5,15 ; 8,8
45: 17,15 ; 26,8
46: 20,15 ; 30,8
47: 9,15 ; 14,8
48: 18,15 ; 27,8
49: 17,15 ; 26,8
50: 20,15 ; 30,8
51: 18,15 ; 27,8
52: 18,15 ; 27,8
53: 19,15 ; 28,8
54: 18,15 ; 27,8
55: 18,15 ; 27,8
56: 20,15 ; 30,8
57: 19,15 ; 28,8
58: 17,15 ; 26,8
59: 18,15 ; 27,8
60: 18,15 ; 27,8
61: 18,15 ; 27,8
62: 18,15 ; 27,8
63: 17,15 ; 26,8
64: 22,15 ; 33,8
65: 19,15 ; 28,8
66: 2,15 ; 3,8
67: 21,15 ; 32,8
68: 20,15 ; 30,8
69: 20,15 ; 29,8
70: 18,15 ; 27,8
71: 20,15 ; 29,8
72: 4,15 ; 5,8
73: 18,15 ; 27,8
74: 8,15 ; 12,8
75: 20,15 ; 30,8

<incompatible tasks>
24,71
38,52
62,70
4,66
68,11
59,10
55,58
18,2
32,31
67,23
27,55

<precedence relations>
47,53
58,65
18,26
35,42
59,64
3,13
46,48
39,51
17,30
49,62
68,75
6,11
15,23
50,54
26,32
25,34
59,66
5,12
3,24
27,36
6,13
62,67
18,30
68,70
27,29
47,50
55,63
16,26
49,59
1,3
68,72
36,43
47,52
42,47
43,48
26,41
31,37
66,68
49,61
1,5
24,25
16,21
25,33
43,50
31,39
1,7
27,35
2,15
12,19
46,51
36,40
47,49
25,28
15,20
32,45
4,8
50,60
52,57
21,33
1,2
53,58
68,74
6,10
26,31
50,62
1,4
50,55
1,6
10,18
9,20
68,69
15,17
33,41
35,38
4,14
5,15
40,46
68,71
13,22
25,30
32,44
52,56
4,16
20,27
9,24
68,73
6,9

<incompatible tasks>
1,4
1,8
1,15
1,22
1,28
1,42
1,47
1,48
1,50
1,52
1,56
1,66
1,68
1,69
1,74
2,7
2,11
2,18
2,20
2,31
2,38
2,44
2,45
2,51
2,65
2,75
3,11
3,19
3,20
3,24
3,30
3,37
3,38
3,41
3,45
3,53
3,54
3,58
3,59
3,63
3,66
3,74
4,7
4,14
4,15
4,23
4,33
4,36
4,37
4,42
4,44
4,58
4,70
5,8
5,9
5,14
5,36
5,41
5,45
5,54
5,57
5,59
5,60
5,65
5,75
6,7
6,23
6,25
6,34
6,35
6,40
6,45
6,48
6,51
6,55
6,60
6,64
6,74
7,9
7,10
7,12
7,15
7,20
7,27
7,43
7,44
7,50
7,52
7,60
7,66
7,69
8,9
8,23
8,25
8,30
8,31
8,32
8,34
8,37
8,45
8,52
8,55
8,69
8,74
8,75
9,11
9,15
9,17
9,19
9,29
9,33
9,34
9,37
9,40
9,47
9,50
9,51
9,60
9,63
9,64
9,66
9,68
10,12
10,14
10,15
10,16
10,17
10,21
10,29
10,38
10,39
10,47
10,54
10,57
10,62
10,68
10,70
10,73
11,13
11,14
11,17
11,20
11,22
11,23
11,24
11,25
11,26
11,30
11,41
11,45
11,63
11,71
12,16
12,22
12,23
12,26
12,32
12,39
12,44
12,45
12,49
12,75
13,24
13,37
13,48
13,51
13,52
13,53
13,61
13,63
13,64
13,65
14,15
14,17
14,29
14,32
14,34
14,40
14,51
14,52
14,54
14,57
14,60
14,63
14,67
14,68
14,73
15,25
15,27
15,30
15,31
15,39
15,42
15,43
15,44
15,48
15,51
15,61
15,62
15,64
16,17
16,25
16,26
16,28
16,29
16,38
16,39
16,50
16,54
16,55
16,59
16,66
16,68
16,70
16,74
17,21
17,33
17,39
17,44
17,49
17,50
17,58
17,59
18,19
18,23
18,29
18,30
18,37
18,40
18,41
18,43
18,47
18,48
18,53
18,60
18,65
18,66
18,71
19,20
19,21
19,24
19,35
19,45
19,47
19,50
19,52
19,57
19,60
19,64
19,73
20,21
20,24
20,25
20,29
20,30
20,38
20,39
20,56
20,65
20,68
21,30
21,32
21,34
21,36
21,38
21,44
21,50
21,54
21,58
21,60
21,63
21,65
21,66
22,24
22,35
22,38
22,50
22,57
22,64
22,75
23,31
23,33
23,34
23,37
23,42
23,52
23,57
23,61
23,64
24,29
24,35
24,41
24,45
24,55
24,59
24,60
24,61
24,62
24,64
24,72
24,73
25,29
25,45
25,53
25,56
25,59
25,60
25,63
25,70
25,74
25,75
26,31
26,41
26,51
26,52
26,54
26,57
26,67
26,69
26,70
26,72
27,30
27,32
27,33
27,39
27,48
27,55
27,59
27,63
27,70
27,74
28,29
28,31
28,41
28,48
28,51
28,53
28,64
29,34
29,46
29,54
29,59
29,61
29,70
30,31
30,37
30,40
30,41
30,42
30,48
30,55
30,56
30,57
30,58
30,69
31,37
31,39
31,41
31,42
31,46
31,50
31,52
31,64
31,75
32,38
32,40
32,44
32,49
32,58
32,62
32,64
33,40
33,46
33,47
33,48
33,62
33,68
33,72
33,75
34,51
34,53
34,58
34,62
34,65
34,72
35,37
35,42
35,43
35,48
35,51
35,52
35,53
35,62
36,47
36,51
36,57
36,69
36,70
36,72
37,43
37,68
37,70
38,46
38,48
38,50
38,56
38,68
38,75
39,42
39,43
39,45
39,49
39,51
39,56
39,61
39,67
39,69
39,71
39,73
40,48
40,53
40,56
40,65
40,70
40,73
41,50
41,55
41,58
41,59
41,63
41,68
42,43
42,55
42,60
42,74
43,44
43,52
43,57
43,58
43,61
43,63
43,67
43,70
43,74
44,48
44,51
44,53
44,60
44,61
44,63
44,66
44,68
44,70
45,46
45,50
45,55
45,59
45,62
45,66
46,72
47,48
47,57
47,62
47,63
47,68
48,49
48,64
48,66
49,59
49,60
49,61
49,68
49,70
50,52
50,53
50,55
50,57
50,63
50,71
51,52
51,55
51,57
51,65
51,67
51,70
51,73
51,75
52,54
52,60
52,65
52,73
53,56
53,60
53,72
53,74
54,75
55,62
55,70
55,73
55,75
56,59
56,66
57,58
57,68
57,70
57,71
58,60
58,61
58,72
58,73
59,60
59,63
59,66
59,71
59,75
60,71
60,72
61,72
61,73
62,66
62,68
62,69
62,70
63,68
63,72
63,73
64,68
64,73
64,74
65,74
66,75
69,70
69,73
69,75
70,75

<optimal SALBP-1 value>
59

<rand seed>
236278236

<end>
